results/x-long/X-n110-k13.vrp_seed-34.out
14971	1008
