results/x-long/X-n110-k13.vrp_seed-34.vrp.sol
Route #1: 49 8 62 100 86 10 72 63 19
Route #2: 109 18 84 87 26 15 53 66 98
Route #3: 6 77 11 85 51 89 46 5
Route #4: 56 102 33 9 101 4 24 103 25 69
Route #5: 71 2 43 64 36 65 99
Route #6: 105 20 92 97 42 106 67 34 45
Route #7: 91 38 108 3 14
Route #8: 30 55 76 83 22 61 60 104 93 80
Route #9: 23 13 57 107 82 48 47 40
Route #10: 1 90 16 29 78 74 32 79
Route #11: 70 44 81 94 37 7 35 73
Route #12: 68 54 96 88 75 21 41 12 58
Route #13: 27 59 95 17 31 28 39 50 52
Cost 14971.000000